rect_size = array1d(1..1,
    [|3,3|3,4|3,5|3,6|3,7|3,8|3,9|3,10|3,11|3,17|4,3|4,9|4,11|4,17|]);

rect_offset = array1d(1..1, [|0,0 |0,0 |0,0 |0,0 |0,0 |0,0 |0,0 |0,0 |0,0 |0,0 |0,0
    |0,0 |0,0 |0,0 |]);

shape = array1d(1..14, [{1}, {2}, {3}, {4}, {5}, {6}, {7}, {8}, {9}, {10},
    {11}, {12}, {13}, {14}]);

valid_shapes = array1d(1..14, [{1,2}, {3,4}, {5,6}, {7,8}, {9,10}, {11,12}, {13,14},
    {15,16}, {17,18}, {19,20}, {21,22}, {23,24}, {25,26}, {27,28}]);

